Cu  O  C  O  H                          
   1.00000000000000     
    20.5454047200000005    0.0000000000000000    0.0000000000000000
     0.0000000000000000   22.5693287100000006    0.0000000000000000
     0.0000000000000000    0.0000000000000000   23.6424838900000012
   Cu   O    C    O    H 
    78     1     1     1     1
Direct
  0.4650803672352590  0.5454865657092168  0.7511674993523945
  0.5776249693560557  0.5652592984274609  0.7149018021949894
  0.5239388756407878  0.4606093800694925  0.7048987019930748
  0.4877610615010567  0.6435278503732536  0.7030255119304407
  0.3782226403463513  0.5892511891462587  0.6897130972009650
  0.3999031957934895  0.4763026258948365  0.6887258819896831
  0.6879031297577737  0.5826418984757491  0.6719396518735077
  0.6387836927773205  0.4798328064850910  0.6653572804037667
  0.6029125412672175  0.6629867139124553  0.6610632276169099
  0.4830362438105313  0.5463087446284571  0.6486955240028407
  0.5848907258765830  0.3792236439557380  0.6553902406930457
  0.5120890695909108  0.7365075466233661  0.6478721583545943
  0.4631417278289470  0.3737596789039640  0.6090105288659609
  0.4029957333159057  0.6884292624993722  0.6360589728898458
  0.3140244953753866  0.5204388083372161  0.6225500705971670
  0.2973367574117552  0.6319346135404833  0.6217492810205784
  0.3385912973168077  0.4107272212407115  0.6210686901782865
  0.5964629092862044  0.5656465474254002  0.6088976715300293
  0.5437395512078093  0.4601214412978614  0.6000435574645371
  0.5073591199685263  0.6428367313835558  0.5958514547212242
  0.3977517644448594  0.5905239959540212  0.5839196309735413
  0.4186568930458069  0.4764191931872304  0.5839057787994830
  0.7057145470327073  0.5237304943401883  0.5810882597880954
  0.6809731045741554  0.6379743118173411  0.5790886351157010
  0.6576585119730669  0.4226382141168785  0.5749233610597434
  0.5876982216449012  0.7172073469659730  0.5657882005146082
  0.5706338134607771  0.3468728947449662  0.5566728845304506
  0.5025344513501019  0.5457732121103065  0.5413711502528112
  0.4650492786122531  0.7347169674918242  0.5488431327277459
  0.4720059473249198  0.3095079277065204  0.5078290311502774
  0.3509414505348080  0.6816510788196485  0.5384623750276823
  0.3127728400452227  0.4666804673241346  0.5261537086982526
  0.3753222994249107  0.3729416974424093  0.5272948144901674
  0.6082141542031948  0.5076208875164352  0.5179507646542063
  0.5896663301520590  0.6237368076755192  0.5132887410577412
  0.6835454742983529  0.3445375559810127  0.5057221769873137
  0.4863222452463726  0.4206810886673336  0.5165040263713158
  0.4530838034039248  0.6380186615453525  0.4985891583952570
  0.4027382196692171  0.5345059603280480  0.4908487301797202
  0.5642117888325261  0.5809014177161478  0.2480293891146192
  0.4884356593938406  0.4910765823903969  0.2527086309271351
  0.6118330663464439  0.4777795346596176  0.2733573086305159
  0.4133259359184959  0.4039244787070318  0.2586058685762007
  0.5341213703620227  0.3877907778854373  0.2745816261116990
  0.6532401409450977  0.3765143170340994  0.2979216871879062
  0.4510836032352283  0.5902752648496097  0.2955817378046920
  0.3738987686459084  0.5005200307363309  0.2993110116217612
  0.6514416761535652  0.5703250070544464  0.3262628437002270
  0.5521176295595315  0.6423980710048827  0.3412049356208277
  0.5394373094512374  0.5315271692711642  0.3407706718028757
  0.6970180877812957  0.4637940593340087  0.3528421908608320
  0.4626308434112528  0.4421769275850714  0.3458719603411707
  0.4474043615913528  0.3310734812854034  0.3322180924261492
  0.3404279131044227  0.5972317092167468  0.3432115788694723
  0.5714694095676582  0.3165552576500300  0.3521051655589054
  0.5842098135054239  0.4288527860213454  0.3661295717743238
  0.3494818188291119  0.4011528513327240  0.3506294475390668
  0.4414763905056903  0.6534445342334727  0.3829709373674873
  0.4241772597950084  0.5405515798966488  0.3885074530959845
  0.6979586952202647  0.5754530047028539  0.4889259079173826
  0.6740843789030403  0.3641417623903293  0.4022670277915355
  0.3099924024969049  0.5164679651874092  0.4259493614763977
  0.6360374559447743  0.6342970841742644  0.4161635073939911
  0.6298073731760307  0.5223536098593700  0.4174109815429255
  0.5266621077502545  0.5884173615675004  0.4320596305803007
  0.5135497207660392  0.4827486526466209  0.4373626316950793
  0.5341965304752505  0.6982453120192074  0.4473592269339267
  0.4988592493367663  0.3702381229501404  0.4217060464650612
  0.4845296757731971  0.2636597407088357  0.4097462408466415
  0.3991517575589394  0.4393200170340900  0.4400342298874127
  0.7066887129951189  0.4583952179397514  0.4772595784016972
  0.3862877111941314  0.3282366479353401  0.4276343669423550
  0.3477396965496841  0.6250003839913504  0.4441651972911514
  0.4082338424329359  0.7263151863467859  0.4556415851525746
  0.2923272944040358  0.3984956790308820  0.4451837826050083
  0.5987675807598097  0.4104745633081760  0.4720710421431916
  0.5858435859096109  0.3009000995853932  0.4579843503524867
  0.2962021607324345  0.5763749775220181  0.5270514532316624
  0.5947697265764982  0.6793309933926934  0.1771589065498861
  0.5872039979178894  0.6183310772262071  0.1758510706585070
  0.5939383100043011  0.5911642549353255  0.1314599941393280
  0.6050640899976903  0.6917395137309502  0.1383493061701702
 
             NaN             NaN             NaN
             NaN             NaN             NaN
             NaN             NaN             NaN
             NaN             NaN             NaN
             NaN             NaN             NaN
             NaN             NaN             NaN
             NaN             NaN             NaN
             NaN             NaN             NaN
             NaN             NaN             NaN
             NaN             NaN             NaN
             NaN             NaN             NaN
             NaN             NaN             NaN
             NaN             NaN             NaN
             NaN             NaN             NaN
             NaN             NaN             NaN
             NaN             NaN             NaN
             NaN             NaN             NaN
             NaN             NaN             NaN
             NaN             NaN             NaN
             NaN             NaN             NaN
             NaN             NaN             NaN
             NaN             NaN             NaN
             NaN             NaN             NaN
             NaN             NaN             NaN
             NaN             NaN             NaN
             NaN             NaN             NaN
             NaN             NaN             NaN
             NaN             NaN             NaN
             NaN             NaN             NaN
             NaN             NaN             NaN
             NaN             NaN             NaN
             NaN             NaN             NaN
             NaN             NaN             NaN
             NaN             NaN             NaN
             NaN             NaN             NaN
             NaN             NaN             NaN
             NaN             NaN             NaN
             NaN             NaN             NaN
             NaN             NaN             NaN
             NaN             NaN             NaN
             NaN             NaN             NaN
             NaN             NaN             NaN
             NaN             NaN             NaN
             NaN             NaN             NaN
             NaN             NaN             NaN
             NaN             NaN             NaN
             NaN             NaN             NaN
             NaN             NaN             NaN
             NaN             NaN             NaN
             NaN             NaN             NaN
             NaN             NaN             NaN
             NaN             NaN             NaN
             NaN             NaN             NaN
             NaN             NaN             NaN
             NaN             NaN             NaN
             NaN             NaN             NaN
             NaN             NaN             NaN
             NaN             NaN             NaN
             NaN             NaN             NaN
             NaN             NaN             NaN
             NaN             NaN             NaN
             NaN             NaN             NaN
             NaN             NaN             NaN
             NaN             NaN             NaN
             NaN             NaN             NaN
             NaN             NaN             NaN
             NaN             NaN             NaN
             NaN             NaN             NaN
             NaN             NaN             NaN
             NaN             NaN             NaN
             NaN             NaN             NaN
             NaN             NaN             NaN
             NaN             NaN             NaN
             NaN             NaN             NaN
             NaN             NaN             NaN
             NaN             NaN             NaN
             NaN             NaN             NaN
             NaN             NaN             NaN
             NaN             NaN             NaN
             NaN             NaN             NaN
             NaN             NaN             NaN
             NaN             NaN             NaN
