Cu  O  C  O  H 
 1.0000000000000000
    20.5454047200000005    0.0000000000000000    0.0000000000000000
     0.0000000000000000   22.5693287100000006    0.0000000000000000
     0.0000000000000000    0.0000000000000000   23.6424838900000012
 Cu  O   C   O   H  
  78   1   1   1   1
Cartesian
  9.5789700000000000 12.3043499999999995 17.7212199999999989
 11.8920200000000005 12.7557100000000005 16.8750800000000005
 10.7818400000000008 10.3709500000000006 16.6451799999999999
 10.0422799999999999 14.5163899999999995 16.5869800000000005
  7.7909199999999998 13.2886199999999999 16.2777400000000014
  8.2396499999999993 10.7400900000000004 16.2520400000000009
 14.1568100000000001 13.1600199999999994 15.8635900000000003
 13.1600999999999999 10.8360900000000004 15.7164800000000007
 12.3956199999999992 14.9511699999999994 15.5832300000000004
  9.9480000000000004 12.3134899999999998 15.3040099999999999
 12.0632500000000000  8.5582200000000004 15.4904299999999999
 10.5382400000000001 16.6064499999999988 15.2593599999999991
  9.5294200000000000  8.4618099999999998 14.3914500000000007
  8.2890099999999993 15.5207099999999993 15.0156600000000005
  6.4509499999999997 11.7403099999999991 14.6999600000000008
  6.1098699999999999 14.2410200000000007 14.6943999999999999
  6.9517699999999998  9.2700899999999997 14.6615400000000005
 12.2692700000000006 12.7562999999999995 14.3749099999999999
 11.2047500000000007 10.3688800000000008 14.1731800000000003
 10.4254800000000003 14.4862900000000003 14.0494100000000000
  8.1754800000000003 13.3109300000000008 13.7884899999999995
  8.5923599999999993 10.7467900000000007 13.7729300000000006
 14.5426599999999997 11.8257700000000003 13.7195900000000002
 14.0031400000000001 14.3935700000000004 13.6632099999999994
 13.5551499999999994  9.5354899999999994 13.5844100000000001
 12.0636100000000006 16.1716400000000000 13.2964599999999997
 11.7476900000000004  7.8572400000000000 13.1374300000000002
 10.3282000000000007 12.2907399999999996 12.7552500000000002
  9.5431100000000004 16.5604699999999987 12.9473199999999995
  9.7134499999999999  7.0126999999999997 11.9802300000000006
  7.1895100000000003 15.3664799999999993 12.7254000000000005
  6.3852900000000004 10.5473199999999991 12.4176699999999993
  7.7327800000000000  8.4600399999999993 12.4422099999999993
 12.5291399999999999 11.4458199999999994 12.2529599999999999
 12.1222399999999997 14.0364199999999997 12.1207799999999999
 14.0647199999999994  7.7977200000000000 11.9098400000000009
 10.0138499999999997  9.5222400000000000 12.1927500000000002
  9.2809299999999997 14.3825699999999994 11.7629500000000000
  8.2413299999999996 12.0695300000000003 11.5903899999999993
 11.5862599999999993 13.1392500000000005  5.9576000000000002
 10.0339600000000004 11.1635600000000004  5.9384199999999998
 12.5897600000000001 10.8633600000000001  6.4325400000000004
  8.4970300000000005  9.1930800000000001  6.1020399999999997
 10.9680599999999995  8.8435900000000007  6.4621800000000000
 13.4151000000000007  8.5656900000000000  7.0021300000000002
  9.2759300000000007 13.3960600000000003  6.9745200000000001
  7.6748599999999998 11.3616499999999991  7.0851600000000001
 13.3937799999999996 12.9085400000000003  7.7313099999999997
 11.3637800000000002 14.5444600000000008  8.0600799999999992
 11.0814599999999999 12.0300999999999991  8.0662000000000003
 14.3245500000000003 10.4906500000000005  8.3425999999999991
  9.5041899999999995 10.0458400000000001  8.1603399999999997
  9.1887000000000008  7.5322199999999997  7.8268599999999999
  7.0055800000000001 13.5575399999999995  8.0806100000000001
 11.7312100000000008  7.2029399999999999  8.2762300000000000
 11.9993999999999996  9.7205600000000008  8.6315399999999993
  7.1718200000000003  9.1134599999999999  8.2684099999999994
  9.0819700000000001 14.7891999999999992  9.0614200000000000
  8.7122799999999998 12.2605799999999991  9.1802899999999994
 14.3626600000000000 12.9996500000000008 11.5404699999999991
 13.8369800000000005  8.2256199999999993  9.4653100000000006
  6.3719400000000004 11.6600999999999999 10.0053599999999996
 13.0735100000000006 14.3677600000000005  9.8492400000000000
 12.9450500000000002 11.8110300000000006  9.8746700000000001
 10.8275900000000007 13.3237699999999997 10.1891499999999997
 10.5521799999999999 10.9367999999999999 10.3329199999999997
 10.9689700000000006 15.7813300000000005 10.6364999999999998
 10.2526200000000003  8.3910599999999995  9.9478500000000007
  9.9623100000000004  5.9933500000000004  9.6434099999999994
  8.2119999999999997  9.9359400000000004 10.3811400000000003
 14.5431699999999999 10.3532700000000002 11.2634299999999996
  7.9393900000000004  7.4295299999999997 10.0815800000000007
  7.1239600000000003 14.1107099999999992 10.4760200000000001
  8.3539800000000000 16.4010899999999999 10.7716100000000008
  6.0147100000000000  9.0049600000000005 10.5054200000000009
 12.3179400000000001  9.2870699999999999 11.1345500000000008
 12.0470900000000007  6.8284000000000002 10.7819800000000008
  6.0662799999999999 13.0231499999999993 12.4469600000000007
 12.1166707599999999 15.0521478500000008  4.4113439500000000
 11.9312948500000005 13.7313388700000001  4.6232905400000002
 12.0189606599999994 12.8698519200000003  3.7746922900000000
 12.3280408599999998 15.1466097400000006  3.4588528400000000
